c "random instance"
p edges 150 3314
e 1 4
e 1 6
e 1 8
e 1 10
e 1 17
e 1 20
e 1 23
e 1 26
e 1 28
e 1 38
e 1 40
e 1 42
e 1 43
e 1 49
e 1 50
e 1 51
e 1 52
e 1 53
e 1 55
e 1 56
e 1 57
e 1 65
e 1 66
e 1 67
e 1 69
e 1 74
e 1 87
e 1 100
e 1 106
e 1 107
e 1 112
e 1 121
e 1 122
e 1 123
e 1 126
e 1 132
e 1 136
e 1 139
e 1 141
e 1 146
e 1 148
e 1 150
e 2 5
e 2 8
e 2 14
e 2 23
e 2 28
e 2 29
e 2 31
e 2 38
e 2 45
e 2 48
e 2 51
e 2 54
e 2 58
e 2 59
e 2 68
e 2 69
e 2 71
e 2 73
e 2 76
e 2 77
e 2 81
e 2 83
e 2 84
e 2 92
e 2 97
e 2 102
e 2 105
e 2 108
e 2 111
e 2 112
e 2 114
e 2 119
e 2 123
e 2 124
e 2 129
e 2 133
e 2 137
e 2 138
e 2 140
e 2 143
e 2 144
e 2 146
e 2 148
e 2 149
e 3 5
e 3 7
e 3 11
e 3 14
e 3 15
e 3 16
e 3 17
e 3 18
e 3 20
e 3 22
e 3 23
e 3 24
e 3 26
e 3 27
e 3 36
e 3 39
e 3 41
e 3 42
e 3 51
e 3 52
e 3 57
e 3 80
e 3 87
e 3 88
e 3 91
e 3 93
e 3 94
e 3 111
e 3 112
e 3 113
e 3 114
e 3 115
e 3 120
e 3 124
e 3 125
e 3 138
e 3 139
e 3 141
e 3 142
e 3 143
e 3 145
e 4 10
e 4 14
e 4 17
e 4 24
e 4 25
e 4 27
e 4 29
e 4 30
e 4 33
e 4 34
e 4 37
e 4 39
e 4 43
e 4 44
e 4 46
e 4 48
e 4 49
e 4 51
e 4 52
e 4 54
e 4 57
e 4 62
e 4 72
e 4 74
e 4 77
e 4 82
e 4 84
e 4 88
e 4 90
e 4 92
e 4 94
e 4 95
e 4 96
e 4 97
e 4 98
e 4 99
e 4 101
e 4 106
e 4 116
e 4 123
e 4 126
e 4 127
e 4 128
e 4 135
e 4 137
e 4 139
e 4 140
e 4 146
e 5 9
e 5 15
e 5 19
e 5 24
e 5 28
e 5 33
e 5 34
e 5 35
e 5 36
e 5 42
e 5 50
e 5 53
e 5 56
e 5 58
e 5 65
e 5 73
e 5 74
e 5 75
e 5 78
e 5 80
e 5 86
e 5 92
e 5 93
e 5 98
e 5 101
e 5 104
e 5 109
e 5 113
e 5 116
e 5 120
e 5 121
e 5 123
e 5 127
e 5 129
e 5 134
e 5 137
e 5 138
e 5 139
e 5 145
e 5 146
e 5 147
e 5 148
e 5 149
e 6 8
e 6 17
e 6 18
e 6 21
e 6 23
e 6 26
e 6 31
e 6 32
e 6 35
e 6 37
e 6 38
e 6 42
e 6 43
e 6 51
e 6 54
e 6 56
e 6 63
e 6 65
e 6 72
e 6 75
e 6 77
e 6 78
e 6 79
e 6 80
e 6 82
e 6 83
e 6 93
e 6 101
e 6 105
e 6 106
e 6 111
e 6 112
e 6 121
e 6 122
e 6 123
e 6 124
e 6 137
e 6 140
e 6 144
e 6 148
e 6 149
e 6 150
e 7 9
e 7 12
e 7 13
e 7 26
e 7 27
e 7 29
e 7 35
e 7 41
e 7 43
e 7 44
e 7 48
e 7 49
e 7 50
e 7 51
e 7 52
e 7 53
e 7 63
e 7 69
e 7 70
e 7 71
e 7 73
e 7 74
e 7 76
e 7 81
e 7 87
e 7 92
e 7 93
e 7 95
e 7 96
e 7 97
e 7 99
e 7 100
e 7 101
e 7 102
e 7 105
e 7 108
e 7 113
e 7 116
e 7 117
e 7 119
e 7 121
e 7 123
e 7 124
e 7 125
e 7 126
e 7 127
e 7 128
e 7 129
e 7 132
e 7 136
e 7 141
e 7 144
e 7 145
e 7 148
e 7 150
e 8 12
e 8 14
e 8 15
e 8 18
e 8 20
e 8 22
e 8 23
e 8 25
e 8 30
e 8 31
e 8 32
e 8 36
e 8 39
e 8 40
e 8 44
e 8 45
e 8 50
e 8 54
e 8 59
e 8 64
e 8 65
e 8 69
e 8 70
e 8 72
e 8 74
e 8 78
e 8 79
e 8 83
e 8 85
e 8 87
e 8 88
e 8 95
e 8 97
e 8 103
e 8 106
e 8 108
e 8 111
e 8 113
e 8 116
e 8 118
e 8 121
e 8 124
e 8 125
e 8 129
e 8 131
e 8 132
e 8 137
e 8 143
e 8 146
e 8 148
e 8 150
e 9 14
e 9 16
e 9 23
e 9 27
e 9 28
e 9 29
e 9 32
e 9 38
e 9 42
e 9 44
e 9 45
e 9 46
e 9 49
e 9 53
e 9 55
e 9 61
e 9 67
e 9 69
e 9 77
e 9 79
e 9 80
e 9 83
e 9 90
e 9 92
e 9 95
e 9 100
e 9 101
e 9 105
e 9 112
e 9 114
e 9 120
e 9 121
e 9 127
e 9 128
e 9 130
e 9 131
e 9 136
e 9 138
e 9 139
e 9 140
e 9 149
e 10 12
e 10 14
e 10 20
e 10 22
e 10 23
e 10 28
e 10 30
e 10 33
e 10 34
e 10 36
e 10 39
e 10 40
e 10 41
e 10 42
e 10 46
e 10 51
e 10 52
e 10 58
e 10 61
e 10 62
e 10 64
e 10 65
e 10 75
e 10 77
e 10 86
e 10 92
e 10 93
e 10 94
e 10 96
e 10 100
e 10 107
e 10 111
e 10 117
e 10 118
e 10 119
e 10 124
e 10 128
e 10 129
e 10 131
e 10 133
e 10 136
e 10 139
e 10 141
e 10 145
e 11 14
e 11 16
e 11 19
e 11 25
e 11 33
e 11 43
e 11 52
e 11 55
e 11 59
e 11 61
e 11 62
e 11 65
e 11 66
e 11 75
e 11 81
e 11 82
e 11 86
e 11 89
e 11 90
e 11 91
e 11 96
e 11 98
e 11 103
e 11 112
e 11 114
e 11 117
e 11 118
e 11 119
e 11 121
e 11 122
e 11 127
e 11 129
e 11 132
e 11 133
e 11 136
e 11 139
e 11 141
e 11 145
e 12 17
e 12 18
e 12 19
e 12 24
e 12 25
e 12 27
e 12 29
e 12 33
e 12 38
e 12 39
e 12 57
e 12 61
e 12 66
e 12 75
e 12 76
e 12 79
e 12 83
e 12 84
e 12 90
e 12 94
e 12 103
e 12 106
e 12 113
e 12 134
e 12 136
e 12 138
e 12 144
e 12 146
e 12 147
e 12 148
e 13 15
e 13 20
e 13 21
e 13 24
e 13 29
e 13 37
e 13 38
e 13 41
e 13 43
e 13 51
e 13 52
e 13 58
e 13 61
e 13 63
e 13 65
e 13 71
e 13 72
e 13 73
e 13 85
e 13 86
e 13 87
e 13 88
e 13 93
e 13 94
e 13 97
e 13 98
e 13 100
e 13 104
e 13 107
e 13 109
e 13 111
e 13 115
e 13 117
e 13 121
e 13 127
e 13 128
e 13 133
e 13 134
e 13 136
e 13 141
e 13 143
e 13 150
e 14 15
e 14 18
e 14 23
e 14 24
e 14 27
e 14 30
e 14 35
e 14 36
e 14 37
e 14 38
e 14 43
e 14 44
e 14 46
e 14 54
e 14 63
e 14 66
e 14 69
e 14 70
e 14 73
e 14 79
e 14 86
e 14 87
e 14 88
e 14 97
e 14 100
e 14 104
e 14 111
e 14 115
e 14 116
e 14 120
e 14 123
e 14 126
e 14 131
e 14 132
e 14 136
e 14 140
e 14 142
e 14 143
e 14 146
e 14 149
e 14 150
e 15 16
e 15 22
e 15 30
e 15 32
e 15 35
e 15 36
e 15 39
e 15 41
e 15 42
e 15 47
e 15 49
e 15 50
e 15 51
e 15 53
e 15 54
e 15 57
e 15 59
e 15 60
e 15 62
e 15 65
e 15 70
e 15 75
e 15 80
e 15 85
e 15 88
e 15 89
e 15 92
e 15 99
e 15 102
e 15 103
e 15 105
e 15 110
e 15 116
e 15 119
e 15 120
e 15 124
e 15 125
e 15 127
e 15 128
e 15 129
e 15 130
e 15 134
e 15 140
e 15 143
e 15 144
e 15 147
e 15 149
e 16 27
e 16 31
e 16 35
e 16 37
e 16 38
e 16 40
e 16 42
e 16 46
e 16 48
e 16 50
e 16 55
e 16 57
e 16 64
e 16 65
e 16 68
e 16 73
e 16 75
e 16 80
e 16 82
e 16 87
e 16 88
e 16 90
e 16 91
e 16 101
e 16 104
e 16 105
e 16 106
e 16 107
e 16 108
e 16 109
e 16 111
e 16 115
e 16 117
e 16 121
e 16 130
e 16 131
e 16 132
e 16 134
e 16 138
e 16 139
e 16 140
e 16 145
e 16 146
e 16 147
e 17 19
e 17 23
e 17 25
e 17 27
e 17 31
e 17 34
e 17 35
e 17 36
e 17 40
e 17 42
e 17 43
e 17 54
e 17 55
e 17 57
e 17 60
e 17 62
e 17 63
e 17 64
e 17 68
e 17 70
e 17 84
e 17 89
e 17 90
e 17 91
e 17 96
e 17 99
e 17 100
e 17 105
e 17 118
e 17 119
e 17 123
e 17 125
e 17 133
e 17 137
e 17 144
e 17 146
e 17 149
e 18 19
e 18 24
e 18 25
e 18 26
e 18 29
e 18 30
e 18 39
e 18 40
e 18 43
e 18 47
e 18 51
e 18 55
e 18 58
e 18 59
e 18 60
e 18 61
e 18 66
e 18 74
e 18 76
e 18 77
e 18 80
e 18 83
e 18 85
e 18 86
e 18 89
e 18 93
e 18 96
e 18 100
e 18 103
e 18 109
e 18 110
e 18 115
e 18 117
e 18 118
e 18 119
e 18 125
e 18 129
e 18 130
e 18 131
e 18 139
e 19 25
e 19 27
e 19 44
e 19 47
e 19 49
e 19 51
e 19 52
e 19 54
e 19 58
e 19 59
e 19 60
e 19 61
e 19 64
e 19 69
e 19 74
e 19 75
e 19 76
e 19 77
e 19 80
e 19 86
e 19 99
e 19 104
e 19 106
e 19 110
e 19 111
e 19 116
e 19 118
e 19 119
e 19 120
e 19 123
e 19 125
e 19 126
e 19 133
e 19 137
e 19 138
e 19 141
e 19 148
e 19 149
e 19 150
e 20 21
e 20 23
e 20 24
e 20 25
e 20 26
e 20 27
e 20 28
e 20 32
e 20 39
e 20 44
e 20 49
e 20 50
e 20 55
e 20 57
e 20 59
e 20 63
e 20 64
e 20 67
e 20 68
e 20 69
e 20 76
e 20 78
e 20 79
e 20 88
e 20 90
e 20 91
e 20 98
e 20 99
e 20 100
e 20 102
e 20 105
e 20 110
e 20 111
e 20 122
e 20 125
e 20 130
e 20 139
e 20 141
e 20 145
e 20 146
e 20 149
e 20 150
e 21 27
e 21 29
e 21 30
e 21 32
e 21 35
e 21 42
e 21 43
e 21 50
e 21 59
e 21 60
e 21 63
e 21 64
e 21 67
e 21 69
e 21 70
e 21 73
e 21 80
e 21 81
e 21 83
e 21 85
e 21 87
e 21 95
e 21 98
e 21 105
e 21 106
e 21 107
e 21 110
e 21 111
e 21 116
e 21 119
e 21 120
e 21 125
e 21 128
e 21 132
e 21 134
e 21 137
e 21 140
e 21 142
e 21 143
e 21 144
e 21 146
e 21 147
e 21 148
e 22 26
e 22 27
e 22 41
e 22 44
e 22 46
e 22 52
e 22 53
e 22 57
e 22 60
e 22 64
e 22 65
e 22 67
e 22 70
e 22 75
e 22 76
e 22 83
e 22 89
e 22 90
e 22 92
e 22 94
e 22 96
e 22 98
e 22 103
e 22 116
e 22 119
e 22 123
e 22 132
e 22 133
e 22 134
e 22 141
e 22 144
e 22 146
e 23 24
e 23 27
e 23 28
e 23 30
e 23 31
e 23 37
e 23 39
e 23 44
e 23 45
e 23 51
e 23 54
e 23 60
e 23 67
e 23 69
e 23 72
e 23 73
e 23 74
e 23 76
e 23 77
e 23 89
e 23 107
e 23 110
e 23 112
e 23 114
e 23 115
e 23 118
e 23 119
e 23 123
e 23 126
e 23 133
e 23 134
e 23 139
e 23 143
e 23 145
e 24 26
e 24 34
e 24 47
e 24 51
e 24 64
e 24 71
e 24 80
e 24 83
e 24 86
e 24 87
e 24 89
e 24 91
e 24 98
e 24 101
e 24 104
e 24 111
e 24 120
e 24 123
e 24 125
e 24 128
e 24 129
e 24 131
e 24 133
e 24 137
e 24 138
e 24 141
e 24 143
e 24 144
e 24 148
e 25 26
e 25 34
e 25 37
e 25 41
e 25 43
e 25 44
e 25 47
e 25 52
e 25 55
e 25 57
e 25 61
e 25 69
e 25 70
e 25 75
e 25 76
e 25 77
e 25 83
e 25 85
e 25 92
e 25 98
e 25 100
e 25 104
e 25 106
e 25 107
e 25 110
e 25 111
e 25 115
e 25 124
e 25 131
e 25 133
e 25 134
e 25 136
e 25 137
e 25 138
e 25 141
e 25 142
e 25 144
e 25 146
e 26 28
e 26 29
e 26 36
e 26 37
e 26 38
e 26 39
e 26 41
e 26 52
e 26 53
e 26 55
e 26 58
e 26 60
e 26 62
e 26 63
e 26 64
e 26 66
e 26 67
e 26 78
e 26 84
e 26 88
e 26 90
e 26 91
e 26 92
e 26 99
e 26 104
e 26 105
e 26 106
e 26 110
e 26 114
e 26 115
e 26 117
e 26 118
e 26 120
e 26 121
e 26 126
e 26 130
e 26 134
e 26 143
e 26 145
e 26 147
e 26 149
e 27 28
e 27 35
e 27 36
e 27 37
e 27 39
e 27 41
e 27 44
e 27 45
e 27 46
e 27 48
e 27 49
e 27 52
e 27 53
e 27 59
e 27 69
e 27 76
e 27 80
e 27 86
e 27 89
e 27 90
e 27 91
e 27 97
e 27 104
e 27 106
e 27 108
e 27 110
e 27 114
e 27 116
e 27 117
e 27 121
e 27 125
e 27 128
e 27 130
e 27 131
e 27 132
e 27 137
e 27 138
e 27 140
e 27 141
e 27 150
e 28 32
e 28 35
e 28 36
e 28 42
e 28 43
e 28 46
e 28 47
e 28 55
e 28 61
e 28 63
e 28 66
e 28 68
e 28 71
e 28 72
e 28 73
e 28 74
e 28 75
e 28 77
e 28 78
e 28 79
e 28 80
e 28 82
e 28 94
e 28 98
e 28 103
e 28 107
e 28 113
e 28 116
e 28 119
e 28 121
e 28 129
e 28 135
e 28 138
e 28 148
e 29 32
e 29 35
e 29 42
e 29 47
e 29 48
e 29 54
e 29 57
e 29 58
e 29 61
e 29 72
e 29 74
e 29 78
e 29 79
e 29 83
e 29 85
e 29 88
e 29 95
e 29 99
e 29 101
e 29 102
e 29 105
e 29 106
e 29 107
e 29 111
e 29 113
e 29 114
e 29 115
e 29 118
e 29 119
e 29 123
e 29 129
e 29 130
e 29 134
e 29 137
e 29 140
e 29 143
e 30 32
e 30 36
e 30 41
e 30 49
e 30 57
e 30 64
e 30 65
e 30 66
e 30 68
e 30 72
e 30 75
e 30 83
e 30 93
e 30 95
e 30 99
e 30 100
e 30 101
e 30 105
e 30 107
e 30 121
e 30 124
e 30 126
e 30 129
e 30 137
e 30 140
e 30 142
e 30 144
e 30 146
e 30 147
e 30 149
e 31 32
e 31 39
e 31 40
e 31 42
e 31 47
e 31 56
e 31 57
e 31 58
e 31 62
e 31 63
e 31 65
e 31 67
e 31 71
e 31 73
e 31 74
e 31 77
e 31 83
e 31 85
e 31 89
e 31 93
e 31 105
e 31 107
e 31 111
e 31 115
e 31 125
e 31 127
e 31 128
e 31 130
e 31 131
e 31 132
e 31 133
e 31 142
e 31 149
e 32 33
e 32 52
e 32 53
e 32 54
e 32 60
e 32 63
e 32 64
e 32 66
e 32 70
e 32 71
e 32 72
e 32 76
e 32 78
e 32 79
e 32 82
e 32 87
e 32 90
e 32 93
e 32 94
e 32 96
e 32 101
e 32 104
e 32 108
e 32 109
e 32 116
e 32 123
e 32 124
e 32 125
e 32 129
e 32 135
e 32 143
e 32 148
e 33 42
e 33 43
e 33 46
e 33 47
e 33 48
e 33 49
e 33 51
e 33 52
e 33 57
e 33 58
e 33 60
e 33 64
e 33 65
e 33 70
e 33 77
e 33 78
e 33 81
e 33 82
e 33 91
e 33 93
e 33 102
e 33 104
e 33 109
e 33 110
e 33 115
e 33 117
e 33 119
e 33 121
e 33 123
e 33 126
e 33 129
e 33 130
e 33 131
e 33 136
e 33 138
e 33 140
e 33 142
e 33 143
e 33 145
e 33 146
e 33 147
e 33 148
e 34 39
e 34 41
e 34 46
e 34 49
e 34 50
e 34 59
e 34 61
e 34 62
e 34 68
e 34 69
e 34 71
e 34 74
e 34 77
e 34 89
e 34 90
e 34 98
e 34 109
e 34 113
e 34 118
e 34 126
e 34 128
e 34 131
e 34 133
e 34 135
e 34 137
e 34 138
e 34 143
e 34 144
e 34 149
e 35 43
e 35 50
e 35 51
e 35 52
e 35 54
e 35 57
e 35 58
e 35 61
e 35 65
e 35 78
e 35 82
e 35 83
e 35 84
e 35 93
e 35 95
e 35 101
e 35 105
e 35 106
e 35 111
e 35 112
e 35 114
e 35 115
e 35 117
e 35 120
e 35 123
e 35 126
e 35 127
e 35 131
e 35 136
e 35 138
e 35 140
e 35 141
e 35 142
e 35 143
e 35 144
e 35 146
e 35 149
e 36 48
e 36 49
e 36 50
e 36 53
e 36 54
e 36 57
e 36 63
e 36 73
e 36 76
e 36 77
e 36 78
e 36 79
e 36 80
e 36 85
e 36 86
e 36 89
e 36 96
e 36 99
e 36 100
e 36 112
e 36 114
e 36 115
e 36 117
e 36 118
e 36 119
e 36 121
e 36 128
e 36 130
e 36 131
e 36 139
e 36 143
e 37 38
e 37 40
e 37 43
e 37 44
e 37 48
e 37 49
e 37 56
e 37 59
e 37 64
e 37 65
e 37 66
e 37 67
e 37 68
e 37 73
e 37 74
e 37 75
e 37 77
e 37 83
e 37 89
e 37 90
e 37 91
e 37 93
e 37 96
e 37 98
e 37 104
e 37 111
e 37 116
e 37 117
e 37 122
e 37 123
e 37 127
e 37 128
e 37 129
e 37 134
e 37 135
e 37 136
e 37 141
e 37 142
e 37 143
e 37 144
e 37 146
e 37 149
e 38 40
e 38 42
e 38 45
e 38 49
e 38 51
e 38 53
e 38 55
e 38 62
e 38 73
e 38 74
e 38 78
e 38 83
e 38 91
e 38 96
e 38 101
e 38 106
e 38 108
e 38 109
e 38 113
e 38 119
e 38 124
e 38 125
e 38 132
e 38 133
e 38 135
e 38 136
e 38 145
e 38 149
e 39 40
e 39 42
e 39 46
e 39 51
e 39 67
e 39 74
e 39 84
e 39 87
e 39 90
e 39 93
e 39 99
e 39 109
e 39 114
e 39 119
e 39 121
e 39 123
e 39 124
e 39 125
e 39 126
e 39 127
e 39 130
e 39 133
e 39 144
e 39 145
e 39 150
e 40 41
e 40 42
e 40 56
e 40 59
e 40 70
e 40 71
e 40 72
e 40 74
e 40 77
e 40 81
e 40 84
e 40 87
e 40 93
e 40 94
e 40 98
e 40 100
e 40 102
e 40 107
e 40 109
e 40 115
e 40 119
e 40 128
e 40 130
e 40 132
e 40 133
e 40 134
e 40 135
e 40 140
e 40 141
e 40 142
e 41 42
e 41 48
e 41 54
e 41 56
e 41 58
e 41 61
e 41 66
e 41 67
e 41 69
e 41 70
e 41 72
e 41 74
e 41 86
e 41 87
e 41 88
e 41 90
e 41 93
e 41 97
e 41 99
e 41 106
e 41 107
e 41 114
e 41 115
e 41 120
e 41 126
e 41 130
e 41 134
e 41 135
e 41 139
e 41 142
e 41 149
e 42 47
e 42 48
e 42 51
e 42 57
e 42 67
e 42 71
e 42 80
e 42 81
e 42 84
e 42 85
e 42 86
e 42 95
e 42 96
e 42 101
e 42 102
e 42 104
e 42 105
e 42 108
e 42 109
e 42 116
e 42 127
e 42 128
e 42 129
e 42 131
e 42 132
e 42 137
e 42 142
e 42 147
e 42 148
e 43 45
e 43 49
e 43 51
e 43 53
e 43 54
e 43 56
e 43 57
e 43 59
e 43 60
e 43 66
e 43 67
e 43 68
e 43 73
e 43 78
e 43 82
e 43 86
e 43 89
e 43 91
e 43 92
e 43 93
e 43 99
e 43 100
e 43 101
e 43 105
e 43 110
e 43 114
e 43 123
e 43 124
e 43 129
e 43 130
e 43 131
e 43 137
e 43 138
e 43 142
e 43 145
e 43 146
e 43 150
e 44 50
e 44 51
e 44 60
e 44 62
e 44 64
e 44 73
e 44 79
e 44 83
e 44 85
e 44 86
e 44 87
e 44 88
e 44 93
e 44 95
e 44 97
e 44 98
e 44 104
e 44 107
e 44 108
e 44 109
e 44 110
e 44 114
e 44 118
e 44 119
e 44 120
e 44 121
e 44 122
e 44 134
e 44 137
e 44 144
e 44 146
e 44 148
e 44 149
e 44 150
e 45 46
e 45 50
e 45 51
e 45 53
e 45 56
e 45 58
e 45 66
e 45 68
e 45 70
e 45 74
e 45 75
e 45 76
e 45 77
e 45 85
e 45 86
e 45 88
e 45 90
e 45 96
e 45 98
e 45 101
e 45 102
e 45 103
e 45 105
e 45 110
e 45 111
e 45 112
e 45 117
e 45 119
e 45 126
e 45 139
e 45 141
e 45 146
e 46 48
e 46 49
e 46 56
e 46 58
e 46 62
e 46 63
e 46 67
e 46 68
e 46 72
e 46 73
e 46 75
e 46 76
e 46 78
e 46 80
e 46 81
e 46 85
e 46 87
e 46 88
e 46 89
e 46 90
e 46 92
e 46 94
e 46 110
e 46 114
e 46 115
e 46 116
e 46 132
e 46 133
e 46 137
e 46 139
e 46 142
e 46 144
e 46 145
e 46 150
e 47 52
e 47 53
e 47 56
e 47 57
e 47 59
e 47 62
e 47 64
e 47 65
e 47 67
e 47 70
e 47 72
e 47 75
e 47 76
e 47 85
e 47 86
e 47 87
e 47 88
e 47 92
e 47 93
e 47 94
e 47 100
e 47 102
e 47 107
e 47 111
e 47 119
e 47 125
e 47 137
e 47 138
e 47 142
e 47 148
e 48 49
e 48 50
e 48 52
e 48 55
e 48 56
e 48 57
e 48 61
e 48 62
e 48 64
e 48 66
e 48 69
e 48 77
e 48 78
e 48 84
e 48 87
e 48 90
e 48 92
e 48 97
e 48 98
e 48 99
e 48 100
e 48 108
e 48 109
e 48 111
e 48 114
e 48 119
e 48 122
e 48 123
e 48 127
e 48 134
e 48 135
e 48 136
e 48 140
e 48 146
e 49 50
e 49 53
e 49 55
e 49 58
e 49 59
e 49 61
e 49 62
e 49 63
e 49 66
e 49 70
e 49 77
e 49 78
e 49 81
e 49 86
e 49 100
e 49 102
e 49 105
e 49 116
e 49 117
e 49 118
e 49 119
e 49 120
e 49 121
e 49 123
e 49 125
e 49 126
e 49 131
e 49 133
e 49 137
e 49 141
e 49 144
e 50 51
e 50 52
e 50 56
e 50 57
e 50 58
e 50 66
e 50 68
e 50 80
e 50 85
e 50 87
e 50 103
e 50 110
e 50 111
e 50 116
e 50 119
e 50 120
e 50 121
e 50 129
e 50 131
e 50 132
e 50 133
e 50 137
e 50 141
e 50 144
e 50 145
e 50 148
e 51 54
e 51 55
e 51 57
e 51 63
e 51 66
e 51 69
e 51 70
e 51 72
e 51 74
e 51 77
e 51 78
e 51 83
e 51 86
e 51 87
e 51 90
e 51 92
e 51 94
e 51 108
e 51 111
e 51 115
e 51 118
e 51 120
e 51 123
e 51 125
e 51 126
e 51 128
e 51 131
e 51 132
e 51 136
e 51 137
e 51 139
e 51 140
e 51 142
e 51 143
e 51 144
e 51 149
e 52 54
e 52 65
e 52 70
e 52 71
e 52 73
e 52 75
e 52 77
e 52 81
e 52 84
e 52 88
e 52 89
e 52 90
e 52 95
e 52 96
e 52 97
e 52 98
e 52 103
e 52 106
e 52 118
e 52 124
e 52 129
e 52 130
e 52 138
e 52 141
e 52 142
e 52 143
e 52 144
e 53 60
e 53 66
e 53 75
e 53 76
e 53 81
e 53 82
e 53 86
e 53 89
e 53 92
e 53 96
e 53 102
e 53 104
e 53 107
e 53 110
e 53 114
e 53 118
e 53 119
e 53 122
e 53 123
e 53 128
e 53 130
e 53 138
e 54 58
e 54 69
e 54 73
e 54 78
e 54 79
e 54 86
e 54 90
e 54 94
e 54 95
e 54 97
e 54 100
e 54 109
e 54 113
e 54 123
e 54 127
e 54 130
e 54 136
e 54 137
e 54 139
e 54 141
e 54 144
e 54 145
e 54 148
e 55 57
e 55 58
e 55 61
e 55 68
e 55 70
e 55 72
e 55 79
e 55 81
e 55 93
e 55 106
e 55 107
e 55 111
e 55 112
e 55 114
e 55 115
e 55 116
e 55 118
e 55 119
e 55 121
e 55 123
e 55 124
e 55 126
e 55 129
e 55 131
e 55 135
e 55 137
e 55 143
e 55 146
e 55 147
e 55 150
e 56 59
e 56 64
e 56 65
e 56 67
e 56 70
e 56 75
e 56 76
e 56 77
e 56 78
e 56 81
e 56 84
e 56 88
e 56 96
e 56 98
e 56 104
e 56 106
e 56 107
e 56 108
e 56 111
e 56 113
e 56 117
e 56 120
e 56 122
e 56 124
e 56 127
e 56 128
e 56 129
e 56 135
e 56 139
e 56 143
e 56 145
e 56 149
e 57 58
e 57 61
e 57 66
e 57 71
e 57 72
e 57 74
e 57 75
e 57 79
e 57 88
e 57 94
e 57 98
e 57 105
e 57 112
e 57 114
e 57 119
e 57 121
e 57 125
e 57 126
e 57 131
e 57 132
e 57 134
e 57 138
e 57 145
e 58 62
e 58 63
e 58 64
e 58 67
e 58 71
e 58 73
e 58 74
e 58 77
e 58 78
e 58 80
e 58 83
e 58 85
e 58 87
e 58 90
e 58 91
e 58 101
e 58 102
e 58 108
e 58 109
e 58 110
e 58 111
e 58 122
e 58 125
e 58 126
e 58 128
e 58 129
e 58 131
e 58 132
e 58 138
e 58 141
e 58 147
e 58 149
e 59 60
e 59 63
e 59 65
e 59 69
e 59 70
e 59 71
e 59 76
e 59 77
e 59 79
e 59 81
e 59 82
e 59 85
e 59 88
e 59 91
e 59 93
e 59 101
e 59 109
e 59 113
e 59 114
e 59 115
e 59 121
e 59 123
e 59 127
e 59 129
e 59 133
e 59 134
e 59 135
e 59 137
e 59 143
e 59 144
e 59 146
e 59 147
e 59 150
e 60 63
e 60 69
e 60 70
e 60 73
e 60 78
e 60 82
e 60 83
e 60 85
e 60 86
e 60 88
e 60 92
e 60 97
e 60 101
e 60 102
e 60 107
e 60 112
e 60 114
e 60 117
e 60 132
e 60 134
e 60 136
e 60 138
e 60 139
e 60 141
e 60 142
e 60 147
e 61 64
e 61 65
e 61 70
e 61 72
e 61 73
e 61 78
e 61 79
e 61 81
e 61 82
e 61 84
e 61 89
e 61 91
e 61 96
e 61 98
e 61 99
e 61 101
e 61 103
e 61 105
e 61 109
e 61 114
e 61 115
e 61 120
e 61 130
e 61 131
e 61 137
e 61 138
e 61 141
e 61 148
e 62 64
e 62 69
e 62 70
e 62 71
e 62 72
e 62 76
e 62 86
e 62 95
e 62 103
e 62 105
e 62 116
e 62 118
e 62 123
e 62 124
e 62 134
e 62 137
e 62 139
e 62 142
e 62 143
e 62 146
e 62 150
e 63 68
e 63 71
e 63 73
e 63 76
e 63 81
e 63 82
e 63 83
e 63 85
e 63 86
e 63 88
e 63 92
e 63 93
e 63 94
e 63 101
e 63 102
e 63 103
e 63 115
e 63 116
e 63 117
e 63 125
e 63 134
e 63 135
e 63 138
e 63 148
e 64 66
e 64 68
e 64 70
e 64 71
e 64 72
e 64 74
e 64 75
e 64 80
e 64 82
e 64 83
e 64 84
e 64 87
e 64 95
e 64 103
e 64 112
e 64 119
e 64 122
e 64 124
e 64 130
e 64 131
e 64 138
e 64 141
e 64 149
e 64 150
e 65 66
e 65 72
e 65 73
e 65 74
e 65 82
e 65 83
e 65 87
e 65 95
e 65 99
e 65 101
e 65 106
e 65 108
e 65 111
e 65 116
e 65 118
e 65 123
e 65 125
e 65 136
e 65 138
e 65 141
e 65 145
e 65 146
e 65 150
e 66 70
e 66 76
e 66 79
e 66 80
e 66 83
e 66 84
e 66 95
e 66 98
e 66 104
e 66 105
e 66 109
e 66 117
e 66 122
e 66 124
e 66 127
e 66 128
e 66 136
e 66 140
e 66 144
e 66 148
e 67 82
e 67 85
e 67 89
e 67 91
e 67 95
e 67 96
e 67 97
e 67 102
e 67 108
e 67 113
e 67 114
e 67 121
e 67 124
e 67 125
e 67 131
e 67 132
e 67 134
e 67 141
e 67 143
e 67 148
e 67 150
e 68 71
e 68 72
e 68 74
e 68 79
e 68 80
e 68 81
e 68 82
e 68 89
e 68 95
e 68 96
e 68 98
e 68 101
e 68 104
e 68 106
e 68 109
e 68 112
e 68 116
e 68 120
e 68 123
e 68 148
e 68 149
e 69 72
e 69 73
e 69 77
e 69 80
e 69 81
e 69 86
e 69 87
e 69 89
e 69 96
e 69 98
e 69 103
e 69 106
e 69 107
e 69 108
e 69 109
e 69 111
e 69 113
e 69 115
e 69 119
e 69 122
e 69 124
e 69 125
e 69 126
e 69 128
e 69 131
e 69 137
e 69 141
e 69 143
e 69 149
e 69 150
e 70 86
e 70 87
e 70 88
e 70 90
e 70 98
e 70 99
e 70 103
e 70 104
e 70 106
e 70 108
e 70 110
e 70 123
e 70 124
e 70 126
e 70 128
e 70 131
e 70 133
e 70 136
e 70 137
e 70 138
e 70 142
e 70 145
e 70 147
e 70 148
e 71 74
e 71 81
e 71 82
e 71 84
e 71 87
e 71 89
e 71 90
e 71 92
e 71 94
e 71 98
e 71 99
e 71 102
e 71 115
e 71 116
e 71 119
e 71 122
e 71 131
e 71 132
e 71 136
e 71 137
e 71 139
e 71 143
e 71 147
e 72 74
e 72 78
e 72 80
e 72 87
e 72 88
e 72 91
e 72 100
e 72 101
e 72 104
e 72 111
e 72 124
e 72 127
e 72 130
e 72 132
e 73 76
e 73 81
e 73 83
e 73 84
e 73 89
e 73 91
e 73 92
e 73 98
e 73 99
e 73 102
e 73 103
e 73 107
e 73 112
e 73 113
e 73 115
e 73 120
e 73 121
e 73 126
e 73 134
e 73 135
e 73 143
e 73 146
e 73 149
e 74 76
e 74 78
e 74 79
e 74 80
e 74 87
e 74 90
e 74 92
e 74 93
e 74 95
e 74 100
e 74 104
e 74 105
e 74 117
e 74 119
e 74 123
e 74 124
e 74 130
e 74 131
e 74 132
e 74 144
e 74 145
e 74 147
e 74 148
e 75 89
e 75 98
e 75 104
e 75 107
e 75 110
e 75 111
e 75 122
e 75 124
e 75 130
e 75 135
e 75 136
e 75 143
e 75 147
e 75 150
e 76 87
e 76 88
e 76 91
e 76 93
e 76 95
e 76 99
e 76 100
e 76 102
e 76 105
e 76 108
e 76 109
e 76 110
e 76 112
e 76 117
e 76 118
e 76 120
e 76 123
e 76 129
e 76 133
e 76 136
e 76 137
e 76 139
e 76 145
e 76 147
e 77 80
e 77 81
e 77 82
e 77 85
e 77 87
e 77 88
e 77 91
e 77 92
e 77 94
e 77 99
e 77 101
e 77 102
e 77 103
e 77 104
e 77 108
e 77 109
e 77 113
e 77 114
e 77 124
e 77 130
e 77 133
e 77 136
e 77 137
e 77 139
e 77 140
e 77 141
e 77 143
e 77 147
e 77 148
e 78 82
e 78 90
e 78 95
e 78 100
e 78 101
e 78 106
e 78 107
e 78 111
e 78 113
e 78 117
e 78 120
e 78 124
e 78 127
e 78 129
e 78 130
e 78 135
e 78 137
e 78 138
e 78 140
e 78 141
e 78 142
e 78 146
e 78 148
e 78 150
e 79 83
e 79 84
e 79 90
e 79 96
e 79 99
e 79 100
e 79 108
e 79 109
e 79 116
e 79 118
e 79 123
e 79 124
e 79 125
e 79 129
e 79 136
e 79 137
e 79 139
e 79 140
e 79 141
e 79 143
e 79 148
e 80 85
e 80 86
e 80 87
e 80 89
e 80 100
e 80 106
e 80 110
e 80 112
e 80 115
e 80 119
e 80 121
e 80 123
e 80 124
e 80 126
e 80 128
e 80 129
e 80 131
e 80 132
e 80 133
e 80 140
e 80 141
e 80 144
e 80 145
e 80 147
e 80 148
e 80 150
e 81 84
e 81 89
e 81 97
e 81 98
e 81 103
e 81 106
e 81 108
e 81 111
e 81 113
e 81 120
e 81 121
e 81 123
e 81 129
e 81 130
e 81 133
e 81 134
e 81 135
e 81 139
e 81 140
e 81 143
e 81 144
e 81 149
e 82 83
e 82 87
e 82 93
e 82 95
e 82 99
e 82 103
e 82 107
e 82 109
e 82 125
e 82 126
e 82 130
e 82 133
e 82 141
e 82 142
e 82 144
e 82 145
e 82 146
e 82 148
e 83 84
e 83 86
e 83 91
e 83 100
e 83 102
e 83 103
e 83 112
e 83 114
e 83 115
e 83 116
e 83 118
e 83 120
e 83 123
e 83 125
e 83 126
e 83 128
e 83 142
e 83 143
e 83 144
e 83 145
e 83 146
e 84 85
e 84 87
e 84 91
e 84 95
e 84 96
e 84 97
e 84 98
e 84 102
e 84 105
e 84 108
e 84 110
e 84 112
e 84 114
e 84 116
e 84 120
e 84 131
e 84 134
e 84 138
e 84 140
e 84 143
e 84 145
e 84 146
e 84 148
e 84 149
e 85 87
e 85 92
e 85 93
e 85 109
e 85 118
e 85 121
e 85 128
e 85 131
e 85 133
e 85 138
e 85 143
e 85 145
e 85 146
e 85 147
e 85 148
e 85 150
e 86 88
e 86 89
e 86 93
e 86 102
e 86 107
e 86 109
e 86 110
e 86 112
e 86 113
e 86 117
e 86 118
e 86 119
e 86 121
e 86 122
e 86 123
e 86 125
e 86 126
e 86 130
e 86 131
e 86 132
e 86 139
e 86 145
e 86 148
e 87 88
e 87 91
e 87 96
e 87 98
e 87 99
e 87 100
e 87 101
e 87 102
e 87 104
e 87 105
e 87 106
e 87 113
e 87 117
e 87 120
e 87 123
e 87 126
e 87 130
e 87 131
e 87 134
e 87 136
e 87 138
e 87 139
e 87 143
e 87 144
e 87 145
e 87 149
e 88 91
e 88 93
e 88 97
e 88 101
e 88 102
e 88 104
e 88 108
e 88 110
e 88 112
e 88 115
e 88 120
e 88 122
e 88 125
e 88 128
e 88 131
e 88 133
e 88 138
e 88 139
e 88 141
e 88 143
e 88 145
e 88 147
e 88 150
e 89 90
e 89 92
e 89 93
e 89 97
e 89 108
e 89 109
e 89 113
e 89 115
e 89 117
e 89 122
e 89 125
e 89 127
e 89 134
e 89 136
e 89 143
e 89 144
e 89 145
e 90 101
e 90 102
e 90 103
e 90 107
e 90 110
e 90 112
e 90 113
e 90 118
e 90 124
e 90 125
e 90 126
e 90 130
e 90 132
e 90 136
e 90 137
e 90 138
e 90 139
e 90 142
e 90 145
e 91 92
e 91 103
e 91 105
e 91 107
e 91 111
e 91 113
e 91 117
e 91 119
e 91 120
e 91 125
e 91 132
e 91 133
e 91 137
e 91 140
e 91 142
e 91 148
e 91 150
e 92 94
e 92 97
e 92 99
e 92 104
e 92 108
e 92 110
e 92 114
e 92 116
e 92 119
e 92 120
e 92 128
e 92 132
e 92 135
e 92 139
e 92 140
e 92 142
e 92 145
e 93 94
e 93 106
e 93 107
e 93 109
e 93 110
e 93 122
e 93 123
e 93 135
e 93 138
e 93 144
e 93 147
e 93 148
e 93 150
e 94 96
e 94 98
e 94 100
e 94 104
e 94 109
e 94 111
e 94 116
e 94 117
e 94 122
e 94 125
e 94 127
e 94 130
e 94 131
e 94 132
e 94 139
e 94 140
e 94 149
e 95 96
e 95 98
e 95 99
e 95 102
e 95 107
e 95 108
e 95 111
e 95 113
e 95 114
e 95 115
e 95 116
e 95 119
e 95 122
e 95 123
e 95 124
e 95 128
e 95 129
e 95 136
e 95 143
e 95 144
e 95 145
e 96 107
e 96 110
e 96 112
e 96 114
e 96 115
e 96 116
e 96 117
e 96 122
e 96 125
e 96 126
e 96 130
e 96 131
e 96 134
e 96 137
e 96 140
e 96 143
e 96 149
e 96 150
e 97 100
e 97 101
e 97 103
e 97 104
e 97 114
e 97 119
e 97 120
e 97 127
e 97 131
e 97 132
e 97 136
e 97 143
e 97 144
e 97 148
e 98 102
e 98 104
e 98 106
e 98 108
e 98 109
e 98 110
e 98 111
e 98 112
e 98 113
e 98 114
e 98 115
e 98 116
e 98 119
e 98 123
e 98 128
e 98 132
e 98 139
e 98 140
e 98 144
e 98 145
e 98 150
e 99 101
e 99 106
e 99 107
e 99 120
e 99 132
e 99 133
e 99 138
e 99 140
e 99 141
e 99 142
e 99 143
e 99 149
e 100 104
e 100 106
e 100 110
e 100 112
e 100 113
e 100 122
e 100 123
e 100 125
e 100 129
e 100 130
e 100 141
e 100 147
e 100 149
e 101 106
e 101 108
e 101 114
e 101 117
e 101 119
e 101 131
e 101 136
e 101 150
e 102 106
e 102 108
e 102 113
e 102 119
e 102 124
e 102 125
e 102 126
e 102 127
e 102 135
e 102 149
e 103 106
e 103 107
e 103 109
e 103 119
e 103 120
e 103 126
e 103 129
e 103 134
e 103 138
e 103 142
e 103 143
e 103 144
e 103 149
e 104 109
e 104 112
e 104 114
e 104 115
e 104 119
e 104 121
e 104 122
e 104 125
e 104 128
e 104 130
e 104 132
e 104 140
e 104 142
e 105 109
e 105 110
e 105 111
e 105 114
e 105 123
e 105 124
e 105 138
e 105 140
e 105 143
e 105 149
e 105 150
e 106 114
e 106 115
e 106 117
e 106 121
e 106 131
e 106 132
e 106 133
e 106 135
e 106 141
e 106 147
e 106 150
e 107 113
e 107 115
e 107 116
e 107 118
e 107 125
e 107 129
e 107 131
e 107 133
e 107 136
e 107 138
e 107 140
e 107 145
e 107 146
e 107 149
e 107 150
e 108 113
e 108 114
e 108 116
e 108 121
e 108 123
e 108 124
e 108 126
e 108 137
e 108 138
e 108 143
e 108 146
e 109 117
e 109 119
e 109 120
e 109 122
e 109 123
e 109 124
e 109 125
e 109 127
e 109 128
e 109 129
e 109 132
e 109 135
e 109 138
e 109 141
e 109 143
e 109 144
e 109 145
e 109 148
e 109 150
e 110 111
e 110 114
e 110 115
e 110 118
e 110 122
e 110 123
e 110 127
e 110 131
e 110 134
e 110 135
e 110 137
e 110 141
e 110 146
e 111 114
e 111 116
e 111 117
e 111 124
e 111 126
e 111 128
e 111 138
e 111 140
e 111 143
e 111 145
e 112 113
e 112 120
e 112 126
e 112 129
e 112 132
e 112 133
e 112 134
e 112 139
e 112 140
e 112 143
e 112 145
e 112 148
e 113 120
e 113 121
e 113 131
e 113 135
e 113 137
e 113 140
e 114 118
e 114 119
e 114 123
e 114 124
e 114 125
e 114 127
e 114 130
e 114 135
e 114 139
e 114 141
e 114 142
e 114 144
e 114 149
e 115 119
e 115 122
e 115 123
e 115 132
e 115 137
e 115 141
e 115 142
e 115 150
e 116 118
e 116 120
e 116 122
e 116 123
e 116 125
e 116 126
e 116 133
e 116 134
e 116 136
e 116 140
e 116 144
e 117 118
e 117 131
e 117 135
e 117 137
e 117 141
e 117 145
e 117 149
e 118 119
e 118 121
e 118 129
e 118 130
e 118 131
e 118 132
e 118 134
e 118 138
e 118 140
e 118 143
e 118 146
e 118 148
e 119 124
e 119 126
e 119 130
e 119 139
e 119 140
e 119 142
e 120 123
e 120 130
e 120 132
e 120 134
e 120 140
e 120 141
e 120 147
e 120 149
e 121 122
e 121 124
e 121 129
e 121 131
e 121 143
e 121 144
e 121 146
e 121 150
e 122 126
e 122 128
e 122 129
e 122 136
e 122 139
e 122 140
e 122 143
e 122 148
e 122 149
e 123 127
e 123 139
e 123 140
e 123 143
e 123 144
e 123 145
e 123 146
e 123 148
e 124 129
e 124 132
e 124 133
e 124 134
e 124 145
e 124 148
e 124 150
e 125 126
e 125 130
e 125 131
e 125 135
e 125 137
e 125 139
e 125 141
e 126 130
e 126 133
e 126 134
e 126 136
e 126 137
e 126 138
e 126 140
e 126 142
e 126 144
e 126 146
e 126 148
e 127 137
e 127 140
e 127 141
e 127 145
e 127 148
e 127 149
e 128 129
e 128 135
e 128 136
e 128 140
e 128 142
e 128 148
e 128 150
e 129 133
e 129 134
e 129 139
e 129 142
e 129 145
e 129 150
e 130 132
e 130 134
e 130 137
e 130 141
e 130 142
e 130 144
e 131 139
e 131 141
e 131 143
e 131 144
e 131 147
e 132 139
e 132 144
e 132 147
e 132 150
e 133 141
e 133 142
e 133 147
e 133 150
e 134 136
e 134 140
e 134 144
e 134 145
e 134 146
e 134 148
e 134 149
e 134 150
e 135 140
e 135 144
e 136 142
e 136 144
e 136 146
e 136 149
e 137 142
e 137 147
e 137 148
e 138 139
e 138 145
e 138 148
e 139 143
e 139 144
e 139 145
e 139 147
e 140 146
e 140 149
e 140 150
e 141 143
e 141 145
e 141 146
e 141 150
e 143 146
e 143 148
e 143 149
e 143 150
e 144 146
e 144 147
e 144 149
e 144 150
e 148 149
e 149 150
